69 98 88 6 8 46 3 1 4 100 70 
95 63 76 23 21 18 19 49 22 20 24 
42 39 36 72 62 33 28 27 29 31 30 85 51 84 56 91 80 
14 47 45 5 2 7 79 73 78 53 90 81 94 50 34 32 26 89 48 25 77 58 
83 59 75 97 74 
82 12 16 15 11 10 60 55 
64 66 
92 67 71 41 38 40 35 37 68 
65 52 99 57 86 87 9 13 17 
61 44 43 54 96 93 
